NAME          DCAP_2_4_3_500_SS313
ROWS
 N  OBJ
 L  CON1
 L  CON2
 L  CON3
 L  CON4
 L  CON5
 L  CON6
 L  CON7
 L  CON8
 L  CON9
 L  CON10
 L  CON11
 L  CON12
 E  CON13
 E  CON14
 E  CON15
 E  CON16
 E  CON17
 E  CON18
 E  CON19
 E  CON20
 E  CON21
 E  CON22
 E  CON23
 E  CON24
COLUMNS
    x[1,1]    OBJ       6.180167      CON1      1.000000    
    x[1,1]    CON7      -1.000000     CON8      -1.000000   
    x[1,1]    CON9      -1.000000   
    x[1,2]    OBJ       6.563535      CON2      1.000000    
    x[1,2]    CON8      -1.000000     CON9      -1.000000   
    x[1,3]    OBJ       7.443064      CON3      1.000000    
    x[1,3]    CON9      -1.000000   
    x[2,1]    OBJ       6.732585      CON4      1.000000    
    x[2,1]    CON10     -1.000000     CON11     -1.000000   
    x[2,1]    CON12     -1.000000   
    x[2,2]    OBJ       5.039546      CON5      1.000000    
    x[2,2]    CON11     -1.000000     CON12     -1.000000   
    x[2,3]    OBJ       6.054841      CON6      1.000000    
    x[2,3]    CON12     -1.000000   
    MARKER    'MARKER'                'INTORG'
    u[1,1]    OBJ       48.076654     CON1      -1.000000   
    u[1,2]    OBJ       20.066487     CON2      -1.000000   
    u[1,3]    OBJ       32.230043     CON3      -1.000000   
    u[2,1]    OBJ       49.996186     CON4      -1.000000   
    u[2,2]    OBJ       49.466655     CON5      -1.000000   
    u[2,3]    OBJ       27.484319     CON6      -1.000000   
    y[1,1,1]  OBJ       8.410206      CON7      0.536876    
    y[1,1,1]  CON13     1.000000    
    y[1,1,2]  OBJ       9.654829      CON8      1.282243    
    y[1,1,2]  CON14     1.000000    
    y[1,1,3]  OBJ       8.596946      CON9      1.232302    
    y[1,1,3]  CON15     1.000000    
    y[1,2,1]  OBJ       9.313568      CON7      1.106376    
    y[1,2,1]  CON16     1.000000    
    y[1,2,2]  OBJ       7.580254      CON8      1.325720    
    y[1,2,2]  CON17     1.000000    
    y[1,2,3]  OBJ       9.026322      CON9      1.005091    
    y[1,2,3]  CON18     1.000000    
    y[1,3,1]  OBJ       9.355955      CON7      1.069013    
    y[1,3,1]  CON19     1.000000    
    y[1,3,2]  OBJ       5.725565      CON8      0.562927    
    y[1,3,2]  CON20     1.000000    
    y[1,3,3]  OBJ       8.169464      CON9      0.642515    
    y[1,3,3]  CON21     1.000000    
    y[1,4,1]  OBJ       9.286838      CON7      0.564327    
    y[1,4,1]  CON22     1.000000    
    y[1,4,2]  OBJ       8.365177      CON8      1.163795    
    y[1,4,2]  CON23     1.000000    
    y[1,4,3]  OBJ       9.567959      CON9      1.211722    
    y[1,4,3]  CON24     1.000000    
    y[2,1,1]  OBJ       5.038779      CON10     0.536876    
    y[2,1,1]  CON13     1.000000    
    y[2,1,2]  OBJ       6.973414      CON11     1.282243    
    y[2,1,2]  CON14     1.000000    
    y[2,1,3]  OBJ       9.731739      CON12     1.232302    
    y[2,1,3]  CON15     1.000000    
    y[2,2,1]  OBJ       6.758703      CON10     1.106376    
    y[2,2,1]  CON16     1.000000    
    y[2,2,2]  OBJ       9.609422      CON11     1.325720    
    y[2,2,2]  CON17     1.000000    
    y[2,2,3]  OBJ       6.910827      CON12     1.005091    
    y[2,2,3]  CON18     1.000000    
    y[2,3,1]  OBJ       6.616219      CON10     1.069013    
    y[2,3,1]  CON19     1.000000    
    y[2,3,2]  OBJ       8.074861      CON11     0.562927    
    y[2,3,2]  CON20     1.000000    
    y[2,3,3]  OBJ       6.535053      CON12     0.642515    
    y[2,3,3]  CON21     1.000000    
    y[2,4,1]  OBJ       8.703557      CON10     0.564327    
    y[2,4,1]  CON22     1.000000    
    y[2,4,2]  OBJ       8.598431      CON11     1.163795    
    y[2,4,2]  CON23     1.000000    
    y[2,4,3]  OBJ       8.256026      CON12     1.211722    
    y[2,4,3]  CON24     1.000000    
    z[1,1]    OBJ       801.557368    CON13     1.000000    
    z[1,2]    OBJ       838.940392    CON14     1.000000    
    z[1,3]    OBJ       856.648625    CON15     1.000000    
    z[2,1]    OBJ       916.675387    CON16     1.000000    
    z[2,2]    OBJ       834.956659    CON17     1.000000    
    z[2,3]    OBJ       554.571804    CON18     1.000000    
    z[3,1]    OBJ       796.022078    CON19     1.000000    
    z[3,2]    OBJ       939.658489    CON20     1.000000    
    z[3,3]    OBJ       744.716900    CON21     1.000000    
    z[4,1]    OBJ       815.726447    CON22     1.000000    
    z[4,2]    OBJ       635.600891    CON23     1.000000    
    z[4,3]    OBJ       724.943318    CON24     1.000000    
    MARKER    'MARKER'                 'INTEND'
RHS
    RHS       CON1      -0.000000     CON2      -0.000000   
    RHS       CON3      -0.000000     CON4      -0.000000   
    RHS       CON5      -0.000000     CON6      -0.000000   
    RHS       CON7      -0.000000     CON8      -0.000000   
    RHS       CON9      -0.000000     CON10     -0.000000   
    RHS       CON11     -0.000000     CON12     -0.000000   
    RHS       CON13     1.000000      CON14     1.000000    
    RHS       CON15     1.000000      CON16     1.000000    
    RHS       CON17     1.000000      CON18     1.000000    
    RHS       CON19     1.000000      CON20     1.000000    
    RHS       CON21     1.000000      CON22     1.000000    
    RHS       CON23     1.000000      CON24     1.000000    
BOUNDS
 BV BOUND     u[1,1]  
 BV BOUND     u[1,2]  
 BV BOUND     u[1,3]  
 BV BOUND     u[2,1]  
 BV BOUND     u[2,2]  
 BV BOUND     u[2,3]  
 BV BOUND     y[1,1,1]
 BV BOUND     y[1,1,2]
 BV BOUND     y[1,1,3]
 BV BOUND     y[1,2,1]
 BV BOUND     y[1,2,2]
 BV BOUND     y[1,2,3]
 BV BOUND     y[1,3,1]
 BV BOUND     y[1,3,2]
 BV BOUND     y[1,3,3]
 BV BOUND     y[1,4,1]
 BV BOUND     y[1,4,2]
 BV BOUND     y[1,4,3]
 BV BOUND     y[2,1,1]
 BV BOUND     y[2,1,2]
 BV BOUND     y[2,1,3]
 BV BOUND     y[2,2,1]
 BV BOUND     y[2,2,2]
 BV BOUND     y[2,2,3]
 BV BOUND     y[2,3,1]
 BV BOUND     y[2,3,2]
 BV BOUND     y[2,3,3]
 BV BOUND     y[2,4,1]
 BV BOUND     y[2,4,2]
 BV BOUND     y[2,4,3]
 BV BOUND     z[1,1]  
 BV BOUND     z[1,2]  
 BV BOUND     z[1,3]  
 BV BOUND     z[2,1]  
 BV BOUND     z[2,2]  
 BV BOUND     z[2,3]  
 BV BOUND     z[3,1]  
 BV BOUND     z[3,2]  
 BV BOUND     z[3,3]  
 BV BOUND     z[4,1]  
 BV BOUND     z[4,2]  
 BV BOUND     z[4,3]  
ENDATA
